certificates/rado_a10_c168_N19.cnf
c Rad2 upper bound instance: x1 + 10*x2 - x3 = 168, interval [1,19]
p cnf 19 72
1 3 17 0
-1 -3 -17 0
1 13 18 0
-1 -13 -18 0
2 4 17 0
-2 -4 -17 0
2 14 18 0
-2 -14 -18 0
3 5 17 0
-3 -5 -17 0
3 15 18 0
-3 -15 -18 0
4 6 17 0
-4 -6 -17 0
4 16 18 0
-4 -16 -18 0
5 7 17 0
-5 -7 -17 0
5 17 18 0
-5 -17 -18 0
6 8 17 0
-6 -8 -17 0
6 18 0
-6 -18 0
7 9 17 0
-7 -9 -17 0
7 18 19 0
-7 -18 -19 0
8 10 17 0
-8 -10 -17 0
1 9 16 0
-1 -9 -16 0
9 11 17 0
-9 -11 -17 0
2 10 16 0
-2 -10 -16 0
10 12 17 0
-10 -12 -17 0
3 11 16 0
-3 -11 -16 0
11 13 17 0
-11 -13 -17 0
4 12 16 0
-4 -12 -16 0
12 14 17 0
-12 -14 -17 0
5 13 16 0
-5 -13 -16 0
13 15 17 0
-13 -15 -17 0
6 14 16 0
-6 -14 -16 0
14 16 17 0
-14 -16 -17 0
7 15 16 0
-7 -15 -16 0
15 17 0
-15 -17 0
8 16 0
-8 -16 0
16 17 18 0
-16 -17 -18 0
9 16 17 0
-9 -16 -17 0
17 19 0
-17 -19 0
10 16 18 0
-10 -16 -18 0
1 15 19 0
-1 -15 -19 0
11 16 19 0
-11 -16 -19 0
