certificates/rado_a10_c168_N19.drat
-19 0
17 0
-15 0
1 0
-3 0
18 0
-6 0
-13 0
-5 0
-16 0
14 0
0
